c "random instance"
p edges 150 3301
e 1 9
e 1 11
e 1 14
e 1 21
e 1 23
e 1 26
e 1 28
e 1 34
e 1 40
e 1 41
e 1 43
e 1 45
e 1 46
e 1 50
e 1 51
e 1 52
e 1 63
e 1 66
e 1 69
e 1 72
e 1 74
e 1 76
e 1 78
e 1 80
e 1 89
e 1 90
e 1 92
e 1 94
e 1 97
e 1 101
e 1 102
e 1 104
e 1 107
e 1 108
e 1 116
e 1 126
e 1 132
e 1 133
e 1 134
e 1 142
e 1 144
e 1 147
e 1 149
e 1 150
e 2 4
e 2 8
e 2 14
e 2 15
e 2 20
e 2 21
e 2 24
e 2 30
e 2 32
e 2 40
e 2 44
e 2 47
e 2 48
e 2 49
e 2 52
e 2 53
e 2 56
e 2 58
e 2 67
e 2 69
e 2 74
e 2 77
e 2 79
e 2 80
e 2 83
e 2 87
e 2 98
e 2 103
e 2 110
e 2 123
e 2 128
e 2 133
e 2 134
e 2 138
e 2 140
e 2 142
e 2 150
e 3 4
e 3 5
e 3 7
e 3 9
e 3 12
e 3 13
e 3 14
e 3 18
e 3 21
e 3 23
e 3 26
e 3 29
e 3 31
e 3 34
e 3 38
e 3 40
e 3 44
e 3 48
e 3 49
e 3 52
e 3 53
e 3 54
e 3 58
e 3 66
e 3 68
e 3 70
e 3 72
e 3 78
e 3 79
e 3 81
e 3 85
e 3 86
e 3 87
e 3 93
e 3 100
e 3 105
e 3 107
e 3 112
e 3 115
e 3 117
e 3 118
e 3 119
e 3 125
e 3 130
e 3 134
e 3 136
e 3 137
e 3 138
e 3 141
e 3 143
e 3 144
e 3 146
e 4 9
e 4 12
e 4 13
e 4 16
e 4 20
e 4 24
e 4 26
e 4 31
e 4 35
e 4 36
e 4 37
e 4 41
e 4 42
e 4 48
e 4 49
e 4 52
e 4 54
e 4 55
e 4 57
e 4 60
e 4 64
e 4 66
e 4 72
e 4 73
e 4 75
e 4 78
e 4 81
e 4 87
e 4 90
e 4 91
e 4 92
e 4 94
e 4 95
e 4 101
e 4 104
e 4 106
e 4 110
e 4 112
e 4 115
e 4 116
e 4 119
e 4 120
e 4 124
e 4 126
e 4 131
e 4 138
e 4 141
e 4 145
e 4 148
e 5 9
e 5 10
e 5 12
e 5 15
e 5 19
e 5 20
e 5 26
e 5 27
e 5 33
e 5 36
e 5 37
e 5 41
e 5 47
e 5 48
e 5 52
e 5 56
e 5 60
e 5 65
e 5 73
e 5 76
e 5 83
e 5 88
e 5 89
e 5 90
e 5 91
e 5 97
e 5 100
e 5 102
e 5 107
e 5 109
e 5 113
e 5 116
e 5 121
e 5 127
e 5 128
e 5 129
e 5 130
e 5 138
e 6 9
e 6 14
e 6 15
e 6 17
e 6 19
e 6 23
e 6 26
e 6 28
e 6 30
e 6 33
e 6 35
e 6 40
e 6 43
e 6 49
e 6 51
e 6 53
e 6 57
e 6 62
e 6 63
e 6 67
e 6 75
e 6 80
e 6 89
e 6 93
e 6 96
e 6 99
e 6 102
e 6 103
e 6 105
e 6 107
e 6 111
e 6 114
e 6 118
e 6 119
e 6 126
e 6 128
e 6 129
e 6 135
e 6 138
e 6 142
e 6 146
e 7 8
e 7 10
e 7 11
e 7 13
e 7 19
e 7 20
e 7 22
e 7 23
e 7 25
e 7 32
e 7 36
e 7 39
e 7 41
e 7 43
e 7 48
e 7 52
e 7 54
e 7 59
e 7 63
e 7 68
e 7 69
e 7 71
e 7 73
e 7 77
e 7 80
e 7 86
e 7 88
e 7 93
e 7 94
e 7 95
e 7 97
e 7 98
e 7 99
e 7 101
e 7 104
e 7 105
e 7 106
e 7 110
e 7 111
e 7 114
e 7 116
e 7 117
e 7 118
e 7 120
e 7 123
e 7 127
e 7 129
e 7 136
e 7 140
e 7 143
e 8 10
e 8 11
e 8 28
e 8 30
e 8 31
e 8 34
e 8 37
e 8 39
e 8 44
e 8 48
e 8 49
e 8 55
e 8 58
e 8 60
e 8 67
e 8 71
e 8 78
e 8 79
e 8 84
e 8 88
e 8 90
e 8 95
e 8 104
e 8 106
e 8 107
e 8 112
e 8 114
e 8 120
e 8 125
e 8 129
e 8 132
e 8 133
e 8 134
e 8 141
e 8 147
e 8 148
e 9 10
e 9 12
e 9 15
e 9 17
e 9 20
e 9 26
e 9 34
e 9 46
e 9 47
e 9 48
e 9 49
e 9 52
e 9 53
e 9 55
e 9 57
e 9 58
e 9 59
e 9 60
e 9 61
e 9 68
e 9 70
e 9 72
e 9 75
e 9 78
e 9 80
e 9 83
e 9 87
e 9 92
e 9 93
e 9 96
e 9 97
e 9 98
e 9 101
e 9 104
e 9 107
e 9 113
e 9 114
e 9 118
e 9 122
e 9 125
e 9 128
e 9 129
e 9 133
e 9 139
e 9 144
e 9 148
e 10 12
e 10 20
e 10 25
e 10 28
e 10 38
e 10 39
e 10 40
e 10 43
e 10 45
e 10 49
e 10 52
e 10 56
e 10 64
e 10 66
e 10 71
e 10 75
e 10 77
e 10 78
e 10 80
e 10 82
e 10 96
e 10 100
e 10 101
e 10 106
e 10 116
e 10 117
e 10 121
e 10 125
e 10 134
e 10 136
e 10 138
e 10 150
e 11 12
e 11 13
e 11 21
e 11 22
e 11 23
e 11 25
e 11 26
e 11 29
e 11 34
e 11 38
e 11 43
e 11 44
e 11 45
e 11 46
e 11 47
e 11 51
e 11 52
e 11 59
e 11 66
e 11 68
e 11 74
e 11 78
e 11 80
e 11 83
e 11 84
e 11 85
e 11 89
e 11 90
e 11 91
e 11 93
e 11 95
e 11 98
e 11 99
e 11 106
e 11 109
e 11 114
e 11 120
e 11 122
e 11 124
e 11 133
e 11 138
e 11 144
e 11 145
e 12 17
e 12 20
e 12 21
e 12 26
e 12 33
e 12 34
e 12 35
e 12 36
e 12 37
e 12 40
e 12 43
e 12 45
e 12 46
e 12 53
e 12 54
e 12 56
e 12 58
e 12 60
e 12 70
e 12 72
e 12 75
e 12 79
e 12 81
e 12 82
e 12 83
e 12 84
e 12 88
e 12 102
e 12 106
e 12 109
e 12 111
e 12 115
e 12 118
e 12 122
e 12 133
e 12 136
e 12 139
e 12 145
e 12 147
e 12 150
e 13 16
e 13 23
e 13 26
e 13 28
e 13 33
e 13 36
e 13 37
e 13 38
e 13 41
e 13 47
e 13 49
e 13 50
e 13 54
e 13 63
e 13 64
e 13 65
e 13 67
e 13 68
e 13 75
e 13 79
e 13 82
e 13 83
e 13 84
e 13 87
e 13 88
e 13 93
e 13 98
e 13 99
e 13 101
e 13 108
e 13 111
e 13 113
e 13 114
e 13 123
e 13 125
e 13 130
e 13 132
e 13 133
e 13 134
e 13 137
e 13 140
e 13 144
e 13 150
e 14 15
e 14 17
e 14 18
e 14 21
e 14 22
e 14 24
e 14 25
e 14 26
e 14 30
e 14 34
e 14 35
e 14 36
e 14 39
e 14 40
e 14 47
e 14 49
e 14 51
e 14 52
e 14 54
e 14 57
e 14 61
e 14 65
e 14 67
e 14 71
e 14 72
e 14 81
e 14 83
e 14 87
e 14 94
e 14 98
e 14 99
e 14 110
e 14 114
e 14 118
e 14 120
e 14 121
e 14 122
e 14 126
e 14 129
e 14 133
e 14 136
e 14 138
e 14 142
e 14 143
e 14 148
e 15 16
e 15 18
e 15 32
e 15 34
e 15 36
e 15 38
e 15 41
e 15 43
e 15 54
e 15 55
e 15 58
e 15 61
e 15 75
e 15 82
e 15 83
e 15 89
e 15 92
e 15 96
e 15 98
e 15 99
e 15 103
e 15 105
e 15 107
e 15 111
e 15 113
e 15 115
e 15 116
e 15 118
e 15 121
e 15 122
e 15 126
e 15 127
e 15 128
e 15 135
e 15 136
e 15 147
e 16 26
e 16 27
e 16 35
e 16 38
e 16 43
e 16 44
e 16 50
e 16 51
e 16 54
e 16 55
e 16 57
e 16 60
e 16 61
e 16 62
e 16 63
e 16 65
e 16 69
e 16 72
e 16 74
e 16 75
e 16 84
e 16 85
e 16 86
e 16 95
e 16 109
e 16 114
e 16 115
e 16 116
e 16 117
e 16 120
e 16 134
e 16 137
e 16 138
e 16 139
e 16 140
e 16 141
e 16 143
e 16 146
e 17 20
e 17 30
e 17 31
e 17 35
e 17 38
e 17 43
e 17 52
e 17 56
e 17 57
e 17 60
e 17 61
e 17 64
e 17 66
e 17 68
e 17 69
e 17 71
e 17 73
e 17 74
e 17 79
e 17 81
e 17 82
e 17 83
e 17 87
e 17 91
e 17 92
e 17 94
e 17 95
e 17 101
e 17 102
e 17 106
e 17 109
e 17 114
e 17 121
e 17 122
e 17 124
e 17 125
e 17 130
e 17 132
e 17 134
e 17 136
e 17 137
e 17 148
e 17 149
e 18 23
e 18 24
e 18 26
e 18 27
e 18 28
e 18 34
e 18 43
e 18 45
e 18 46
e 18 47
e 18 48
e 18 49
e 18 50
e 18 62
e 18 63
e 18 64
e 18 66
e 18 68
e 18 69
e 18 70
e 18 71
e 18 77
e 18 79
e 18 80
e 18 83
e 18 86
e 18 95
e 18 97
e 18 98
e 18 100
e 18 107
e 18 110
e 18 111
e 18 116
e 18 118
e 18 119
e 18 123
e 18 125
e 18 133
e 18 144
e 18 145
e 19 20
e 19 25
e 19 26
e 19 27
e 19 41
e 19 49
e 19 50
e 19 54
e 19 55
e 19 56
e 19 57
e 19 59
e 19 63
e 19 69
e 19 71
e 19 79
e 19 81
e 19 84
e 19 88
e 19 89
e 19 93
e 19 95
e 19 100
e 19 104
e 19 107
e 19 108
e 19 109
e 19 112
e 19 114
e 19 116
e 19 118
e 19 120
e 19 127
e 19 129
e 19 130
e 19 131
e 19 135
e 19 142
e 19 143
e 19 148
e 19 149
e 19 150
e 20 24
e 20 36
e 20 37
e 20 40
e 20 41
e 20 44
e 20 46
e 20 47
e 20 48
e 20 50
e 20 52
e 20 55
e 20 64
e 20 67
e 20 70
e 20 73
e 20 77
e 20 80
e 20 85
e 20 88
e 20 89
e 20 101
e 20 104
e 20 108
e 20 109
e 20 112
e 20 116
e 20 117
e 20 119
e 20 125
e 20 132
e 20 137
e 20 138
e 20 142
e 20 147
e 21 23
e 21 25
e 21 32
e 21 35
e 21 45
e 21 47
e 21 48
e 21 50
e 21 52
e 21 55
e 21 59
e 21 62
e 21 63
e 21 64
e 21 66
e 21 72
e 21 73
e 21 75
e 21 82
e 21 90
e 21 94
e 21 98
e 21 100
e 21 106
e 21 110
e 21 114
e 21 117
e 21 118
e 21 121
e 21 130
e 21 133
e 21 134
e 21 136
e 21 137
e 21 144
e 21 146
e 21 149
e 22 23
e 22 26
e 22 36
e 22 43
e 22 46
e 22 53
e 22 59
e 22 60
e 22 66
e 22 67
e 22 68
e 22 72
e 22 73
e 22 75
e 22 76
e 22 78
e 22 79
e 22 80
e 22 92
e 22 95
e 22 96
e 22 98
e 22 99
e 22 105
e 22 106
e 22 110
e 22 111
e 22 113
e 22 116
e 22 126
e 22 127
e 22 131
e 22 134
e 22 136
e 22 141
e 22 142
e 22 144
e 23 24
e 23 26
e 23 33
e 23 35
e 23 36
e 23 37
e 23 39
e 23 41
e 23 46
e 23 47
e 23 52
e 23 54
e 23 59
e 23 63
e 23 65
e 23 68
e 23 70
e 23 74
e 23 75
e 23 77
e 23 80
e 23 81
e 23 85
e 23 92
e 23 104
e 23 105
e 23 109
e 23 110
e 23 112
e 23 114
e 23 115
e 23 123
e 23 130
e 23 134
e 23 137
e 23 139
e 23 143
e 23 145
e 23 147
e 24 28
e 24 29
e 24 36
e 24 42
e 24 45
e 24 47
e 24 48
e 24 52
e 24 54
e 24 55
e 24 57
e 24 65
e 24 72
e 24 73
e 24 77
e 24 87
e 24 88
e 24 91
e 24 93
e 24 95
e 24 102
e 24 103
e 24 109
e 24 117
e 24 121
e 24 123
e 24 131
e 24 132
e 24 133
e 24 135
e 24 138
e 24 141
e 24 143
e 24 146
e 24 147
e 25 26
e 25 32
e 25 33
e 25 37
e 25 38
e 25 41
e 25 42
e 25 48
e 25 55
e 25 57
e 25 61
e 25 67
e 25 69
e 25 72
e 25 75
e 25 76
e 25 79
e 25 81
e 25 85
e 25 87
e 25 88
e 25 92
e 25 93
e 25 99
e 25 100
e 25 101
e 25 111
e 25 113
e 25 116
e 25 122
e 25 126
e 25 129
e 25 131
e 25 133
e 25 135
e 25 137
e 25 138
e 25 139
e 25 140
e 25 141
e 25 142
e 25 143
e 25 147
e 26 28
e 26 35
e 26 44
e 26 49
e 26 51
e 26 53
e 26 54
e 26 58
e 26 60
e 26 65
e 26 70
e 26 78
e 26 79
e 26 81
e 26 85
e 26 89
e 26 94
e 26 97
e 26 103
e 26 106
e 26 109
e 26 111
e 26 114
e 26 116
e 26 119
e 26 126
e 26 128
e 26 135
e 26 143
e 26 145
e 26 150
e 27 32
e 27 46
e 27 48
e 27 49
e 27 50
e 27 51
e 27 52
e 27 53
e 27 54
e 27 57
e 27 59
e 27 64
e 27 66
e 27 71
e 27 75
e 27 80
e 27 84
e 27 85
e 27 86
e 27 90
e 27 93
e 27 94
e 27 97
e 27 108
e 27 110
e 27 111
e 27 113
e 27 118
e 27 122
e 27 123
e 27 129
e 27 134
e 27 139
e 27 149
e 28 40
e 28 44
e 28 45
e 28 46
e 28 49
e 28 50
e 28 53
e 28 60
e 28 62
e 28 73
e 28 74
e 28 76
e 28 81
e 28 92
e 28 96
e 28 101
e 28 105
e 28 109
e 28 110
e 28 112
e 28 119
e 28 133
e 28 135
e 28 137
e 28 145
e 28 146
e 28 147
e 28 148
e 29 39
e 29 42
e 29 44
e 29 45
e 29 46
e 29 54
e 29 62
e 29 63
e 29 67
e 29 68
e 29 70
e 29 71
e 29 73
e 29 75
e 29 76
e 29 78
e 29 84
e 29 88
e 29 92
e 29 98
e 29 103
e 29 105
e 29 109
e 29 113
e 29 114
e 29 116
e 29 117
e 29 122
e 29 128
e 29 133
e 29 136
e 29 137
e 29 138
e 29 146
e 29 149
e 30 33
e 30 40
e 30 43
e 30 44
e 30 45
e 30 49
e 30 51
e 30 57
e 30 58
e 30 63
e 30 65
e 30 67
e 30 69
e 30 77
e 30 79
e 30 80
e 30 86
e 30 87
e 30 88
e 30 91
e 30 92
e 30 95
e 30 98
e 30 105
e 30 108
e 30 109
e 30 112
e 30 114
e 30 126
e 30 139
e 30 142
e 30 145
e 30 150
e 31 32
e 31 34
e 31 35
e 31 38
e 31 41
e 31 45
e 31 47
e 31 52
e 31 61
e 31 66
e 31 67
e 31 70
e 31 76
e 31 78
e 31 80
e 31 82
e 31 84
e 31 88
e 31 93
e 31 96
e 31 106
e 31 111
e 31 114
e 31 115
e 31 119
e 31 121
e 31 125
e 31 127
e 31 129
e 31 130
e 31 132
e 31 136
e 31 142
e 31 143
e 31 146
e 31 149
e 32 33
e 32 34
e 32 36
e 32 39
e 32 43
e 32 53
e 32 60
e 32 76
e 32 77
e 32 80
e 32 87
e 32 90
e 32 92
e 32 96
e 32 108
e 32 111
e 32 112
e 32 116
e 32 119
e 32 128
e 32 133
e 32 137
e 32 139
e 32 141
e 32 143
e 32 144
e 32 149
e 33 35
e 33 39
e 33 42
e 33 43
e 33 45
e 33 50
e 33 53
e 33 54
e 33 57
e 33 61
e 33 62
e 33 69
e 33 71
e 33 76
e 33 77
e 33 78
e 33 86
e 33 89
e 33 90
e 33 92
e 33 96
e 33 102
e 33 107
e 33 112
e 33 116
e 33 120
e 33 121
e 33 122
e 33 132
e 33 135
e 33 136
e 33 137
e 33 138
e 33 139
e 33 140
e 34 36
e 34 39
e 34 46
e 34 49
e 34 58
e 34 60
e 34 61
e 34 62
e 34 66
e 34 69
e 34 70
e 34 74
e 34 75
e 34 76
e 34 84
e 34 86
e 34 88
e 34 92
e 34 94
e 34 95
e 34 96
e 34 98
e 34 101
e 34 102
e 34 109
e 34 112
e 34 118
e 34 121
e 34 126
e 34 133
e 34 134
e 34 149
e 35 36
e 35 38
e 35 42
e 35 44
e 35 47
e 35 52
e 35 53
e 35 56
e 35 57
e 35 58
e 35 59
e 35 62
e 35 63
e 35 65
e 35 68
e 35 71
e 35 74
e 35 75
e 35 76
e 35 84
e 35 85
e 35 95
e 35 101
e 35 102
e 35 107
e 35 110
e 35 114
e 35 116
e 35 117
e 35 118
e 35 123
e 35 125
e 35 127
e 35 129
e 35 133
e 35 136
e 35 141
e 36 41
e 36 43
e 36 45
e 36 46
e 36 47
e 36 60
e 36 64
e 36 66
e 36 71
e 36 75
e 36 87
e 36 92
e 36 94
e 36 95
e 36 100
e 36 103
e 36 104
e 36 106
e 36 109
e 36 112
e 36 118
e 36 122
e 36 124
e 36 126
e 36 131
e 36 137
e 36 138
e 36 144
e 36 150
e 37 42
e 37 56
e 37 61
e 37 63
e 37 76
e 37 84
e 37 88
e 37 93
e 37 103
e 37 104
e 37 107
e 37 108
e 37 109
e 37 110
e 37 116
e 37 117
e 37 119
e 37 121
e 37 122
e 37 124
e 37 125
e 37 132
e 37 134
e 37 137
e 37 139
e 37 141
e 37 145
e 37 147
e 38 41
e 38 44
e 38 47
e 38 51
e 38 58
e 38 61
e 38 66
e 38 68
e 38 73
e 38 76
e 38 78
e 38 90
e 38 91
e 38 95
e 38 97
e 38 98
e 38 99
e 38 100
e 38 107
e 38 109
e 38 110
e 38 113
e 38 116
e 38 118
e 38 130
e 38 134
e 38 138
e 38 139
e 38 147
e 38 148
e 38 149
e 38 150
e 39 45
e 39 46
e 39 51
e 39 52
e 39 53
e 39 62
e 39 63
e 39 67
e 39 68
e 39 70
e 39 76
e 39 77
e 39 78
e 39 81
e 39 82
e 39 84
e 39 85
e 39 86
e 39 87
e 39 88
e 39 90
e 39 92
e 39 94
e 39 96
e 39 98
e 39 105
e 39 106
e 39 111
e 39 114
e 39 116
e 39 120
e 39 123
e 39 126
e 39 131
e 39 132
e 39 133
e 39 134
e 39 140
e 39 141
e 39 142
e 39 149
e 40 46
e 40 49
e 40 50
e 40 58
e 40 59
e 40 61
e 40 64
e 40 67
e 40 72
e 40 73
e 40 74
e 40 78
e 40 80
e 40 85
e 40 87
e 40 90
e 40 91
e 40 95
e 40 96
e 40 97
e 40 99
e 40 101
e 40 106
e 40 118
e 40 121
e 40 124
e 40 126
e 40 127
e 40 129
e 40 130
e 40 133
e 40 134
e 40 136
e 40 141
e 40 148
e 41 44
e 41 46
e 41 48
e 41 57
e 41 61
e 41 62
e 41 63
e 41 69
e 41 73
e 41 78
e 41 79
e 41 83
e 41 88
e 41 92
e 41 93
e 41 96
e 41 103
e 41 105
e 41 108
e 41 112
e 41 123
e 41 128
e 41 130
e 41 131
e 41 132
e 41 133
e 41 138
e 41 141
e 41 146
e 41 150
e 42 43
e 42 45
e 42 52
e 42 55
e 42 60
e 42 61
e 42 64
e 42 67
e 42 71
e 42 75
e 42 78
e 42 79
e 42 80
e 42 84
e 42 95
e 42 97
e 42 99
e 42 105
e 42 106
e 42 107
e 42 108
e 42 112
e 42 113
e 42 117
e 42 120
e 42 124
e 42 128
e 42 133
e 42 136
e 42 140
e 42 142
e 42 148
e 42 150
e 43 50
e 43 54
e 43 55
e 43 61
e 43 64
e 43 67
e 43 70
e 43 71
e 43 73
e 43 76
e 43 79
e 43 82
e 43 91
e 43 92
e 43 94
e 43 95
e 43 100
e 43 102
e 43 105
e 43 111
e 43 116
e 43 117
e 43 118
e 43 128
e 43 138
e 43 139
e 43 140
e 44 47
e 44 49
e 44 63
e 44 65
e 44 71
e 44 74
e 44 79
e 44 80
e 44 82
e 44 85
e 44 91
e 44 96
e 44 98
e 44 104
e 44 109
e 44 110
e 44 113
e 44 115
e 44 117
e 44 118
e 44 123
e 44 124
e 44 125
e 44 126
e 44 127
e 44 132
e 44 142
e 44 147
e 44 149
e 45 53
e 45 64
e 45 66
e 45 68
e 45 69
e 45 71
e 45 73
e 45 80
e 45 88
e 45 91
e 45 94
e 45 95
e 45 97
e 45 100
e 45 106
e 45 111
e 45 115
e 45 119
e 45 121
e 45 122
e 45 125
e 45 131
e 45 132
e 45 133
e 45 136
e 45 140
e 45 144
e 45 146
e 46 52
e 46 60
e 46 64
e 46 65
e 46 66
e 46 71
e 46 74
e 46 78
e 46 83
e 46 84
e 46 85
e 46 91
e 46 93
e 46 103
e 46 104
e 46 108
e 46 110
e 46 111
e 46 113
e 46 117
e 46 121
e 46 125
e 46 126
e 46 128
e 46 129
e 46 130
e 46 134
e 46 137
e 46 139
e 46 140
e 46 149
e 47 54
e 47 55
e 47 58
e 47 60
e 47 64
e 47 65
e 47 66
e 47 68
e 47 73
e 47 75
e 47 79
e 47 85
e 47 86
e 47 88
e 47 90
e 47 93
e 47 101
e 47 105
e 47 108
e 47 109
e 47 111
e 47 113
e 47 115
e 47 116
e 47 119
e 47 122
e 47 126
e 47 127
e 47 129
e 47 139
e 47 143
e 47 144
e 48 50
e 48 51
e 48 54
e 48 56
e 48 59
e 48 63
e 48 70
e 48 72
e 48 73
e 48 74
e 48 75
e 48 77
e 48 82
e 48 84
e 48 85
e 48 87
e 48 91
e 48 93
e 48 99
e 48 101
e 48 104
e 48 109
e 48 110
e 48 112
e 48 115
e 48 125
e 48 128
e 48 129
e 48 138
e 48 143
e 48 148
e 48 149
e 48 150
e 49 53
e 49 61
e 49 62
e 49 63
e 49 64
e 49 66
e 49 70
e 49 71
e 49 73
e 49 78
e 49 86
e 49 90
e 49 96
e 49 98
e 49 104
e 49 106
e 49 111
e 49 113
e 49 114
e 49 115
e 49 116
e 49 118
e 49 121
e 49 124
e 49 126
e 49 127
e 49 129
e 49 137
e 49 138
e 49 140
e 49 142
e 49 143
e 49 147
e 50 51
e 50 56
e 50 61
e 50 63
e 50 64
e 50 66
e 50 72
e 50 73
e 50 83
e 50 87
e 50 89
e 50 91
e 50 94
e 50 99
e 50 102
e 50 104
e 50 105
e 50 112
e 50 114
e 50 116
e 50 127
e 50 128
e 50 130
e 50 132
e 50 136
e 50 137
e 50 141
e 50 142
e 50 146
e 51 52
e 51 56
e 51 59
e 51 65
e 51 69
e 51 72
e 51 75
e 51 78
e 51 81
e 51 93
e 51 96
e 51 100
e 51 101
e 51 104
e 51 108
e 51 110
e 51 117
e 51 119
e 51 122
e 51 125
e 51 127
e 51 135
e 51 137
e 51 141
e 51 142
e 52 53
e 52 54
e 52 57
e 52 58
e 52 60
e 52 62
e 52 64
e 52 66
e 52 67
e 52 68
e 52 69
e 52 74
e 52 77
e 52 79
e 52 82
e 52 83
e 52 89
e 52 92
e 52 98
e 52 111
e 52 118
e 52 119
e 52 120
e 52 122
e 52 125
e 52 127
e 52 130
e 52 133
e 52 141
e 52 146
e 52 149
e 53 54
e 53 58
e 53 61
e 53 72
e 53 85
e 53 87
e 53 92
e 53 93
e 53 96
e 53 106
e 53 112
e 53 114
e 53 115
e 53 118
e 53 120
e 53 124
e 53 131
e 53 132
e 53 133
e 53 135
e 53 137
e 53 140
e 53 141
e 53 143
e 53 145
e 53 147
e 54 55
e 54 61
e 54 67
e 54 70
e 54 71
e 54 73
e 54 75
e 54 79
e 54 80
e 54 81
e 54 83
e 54 93
e 54 98
e 54 102
e 54 118
e 54 125
e 54 127
e 54 128
e 54 130
e 54 131
e 54 134
e 54 136
e 54 142
e 54 145
e 55 56
e 55 59
e 55 62
e 55 69
e 55 71
e 55 74
e 55 78
e 55 83
e 55 86
e 55 87
e 55 88
e 55 90
e 55 98
e 55 99
e 55 101
e 55 102
e 55 124
e 55 128
e 55 131
e 55 134
e 55 137
e 55 138
e 55 143
e 55 145
e 55 146
e 55 149
e 56 57
e 56 60
e 56 63
e 56 64
e 56 65
e 56 68
e 56 69
e 56 73
e 56 77
e 56 78
e 56 84
e 56 85
e 56 89
e 56 93
e 56 98
e 56 100
e 56 101
e 56 102
e 56 106
e 56 109
e 56 112
e 56 113
e 56 115
e 56 116
e 56 120
e 56 125
e 56 128
e 56 129
e 56 133
e 56 134
e 56 140
e 56 141
e 56 144
e 56 148
e 57 60
e 57 61
e 57 63
e 57 72
e 57 73
e 57 75
e 57 76
e 57 79
e 57 82
e 57 83
e 57 90
e 57 91
e 57 92
e 57 97
e 57 101
e 57 102
e 57 107
e 57 110
e 57 111
e 57 119
e 57 121
e 57 123
e 57 125
e 57 128
e 57 138
e 58 62
e 58 65
e 58 74
e 58 77
e 58 80
e 58 81
e 58 83
e 58 87
e 58 88
e 58 89
e 58 90
e 58 97
e 58 100
e 58 101
e 58 108
e 58 114
e 58 115
e 58 119
e 58 121
e 58 123
e 58 127
e 58 132
e 58 136
e 58 137
e 58 138
e 58 142
e 58 143
e 58 150
e 59 62
e 59 70
e 59 72
e 59 79
e 59 80
e 59 82
e 59 93
e 59 96
e 59 98
e 59 115
e 59 116
e 59 117
e 59 121
e 59 123
e 59 130
e 59 135
e 59 142
e 59 143
e 59 147
e 59 148
e 59 150
e 60 62
e 60 64
e 60 67
e 60 71
e 60 73
e 60 80
e 60 81
e 60 85
e 60 88
e 60 96
e 60 99
e 60 102
e 60 103
e 60 104
e 60 107
e 60 111
e 60 112
e 60 113
e 60 115
e 60 117
e 60 118
e 60 122
e 60 124
e 60 126
e 60 128
e 60 129
e 60 130
e 60 138
e 60 140
e 60 146
e 61 63
e 61 64
e 61 65
e 61 71
e 61 72
e 61 73
e 61 77
e 61 79
e 61 80
e 61 82
e 61 83
e 61 87
e 61 93
e 61 95
e 61 96
e 61 101
e 61 102
e 61 104
e 61 105
e 61 107
e 61 108
e 61 116
e 61 119
e 61 121
e 61 127
e 61 130
e 61 132
e 61 136
e 61 141
e 61 143
e 61 145
e 61 147
e 61 148
e 61 150
e 62 66
e 62 67
e 62 70
e 62 71
e 62 73
e 62 82
e 62 86
e 62 89
e 62 99
e 62 100
e 62 101
e 62 110
e 62 116
e 62 121
e 62 123
e 62 124
e 62 129
e 62 130
e 62 132
e 62 133
e 62 135
e 62 136
e 62 141
e 62 147
e 63 70
e 63 71
e 63 72
e 63 74
e 63 83
e 63 84
e 63 90
e 63 92
e 63 96
e 63 99
e 63 114
e 63 122
e 63 126
e 63 128
e 63 132
e 63 134
e 63 140
e 63 144
e 63 148
e 63 150
e 64 67
e 64 71
e 64 73
e 64 88
e 64 89
e 64 98
e 64 102
e 64 107
e 64 109
e 64 110
e 64 111
e 64 113
e 64 117
e 64 120
e 64 124
e 64 129
e 64 134
e 64 135
e 64 137
e 64 143
e 64 145
e 64 147
e 64 148
e 64 149
e 64 150
e 65 66
e 65 71
e 65 76
e 65 78
e 65 80
e 65 82
e 65 84
e 65 91
e 65 95
e 65 103
e 65 111
e 65 113
e 65 117
e 65 118
e 65 119
e 65 120
e 65 122
e 65 129
e 65 131
e 65 135
e 65 136
e 65 139
e 65 140
e 65 142
e 65 150
e 66 67
e 66 72
e 66 80
e 66 90
e 66 91
e 66 95
e 66 100
e 66 105
e 66 111
e 66 114
e 66 116
e 66 117
e 66 122
e 66 125
e 66 127
e 66 140
e 66 142
e 66 144
e 66 145
e 66 148
e 66 149
e 67 76
e 67 79
e 67 80
e 67 84
e 67 88
e 67 89
e 67 93
e 67 94
e 67 96
e 67 98
e 67 100
e 67 103
e 67 105
e 67 110
e 67 111
e 67 114
e 67 118
e 67 119
e 67 128
e 67 134
e 67 135
e 67 138
e 67 145
e 67 148
e 68 75
e 68 76
e 68 78
e 68 81
e 68 82
e 68 86
e 68 90
e 68 99
e 68 101
e 68 102
e 68 103
e 68 106
e 68 109
e 68 110
e 68 113
e 68 116
e 68 118
e 68 121
e 68 122
e 68 130
e 68 135
e 68 147
e 69 72
e 69 77
e 69 80
e 69 82
e 69 83
e 69 86
e 69 93
e 69 94
e 69 95
e 69 97
e 69 98
e 69 100
e 69 102
e 69 105
e 69 111
e 69 114
e 69 117
e 69 121
e 69 128
e 69 129
e 69 132
e 69 137
e 69 142
e 69 147
e 70 75
e 70 76
e 70 83
e 70 86
e 70 91
e 70 94
e 70 96
e 70 102
e 70 107
e 70 108
e 70 110
e 70 117
e 70 118
e 70 120
e 70 134
e 70 139
e 70 143
e 70 145
e 70 148
e 71 74
e 71 81
e 71 82
e 71 84
e 71 91
e 71 96
e 71 97
e 71 100
e 71 103
e 71 110
e 71 111
e 71 116
e 71 117
e 71 119
e 71 126
e 71 127
e 71 129
e 71 134
e 71 138
e 71 142
e 71 145
e 71 149
e 72 73
e 72 76
e 72 77
e 72 79
e 72 85
e 72 87
e 72 90
e 72 94
e 72 103
e 72 108
e 72 111
e 72 115
e 72 121
e 72 126
e 72 128
e 72 129
e 72 136
e 72 139
e 72 141
e 72 143
e 72 149
e 73 78
e 73 80
e 73 83
e 73 88
e 73 89
e 73 90
e 73 92
e 73 94
e 73 96
e 73 98
e 73 99
e 73 103
e 73 104
e 73 105
e 73 106
e 73 108
e 73 111
e 73 114
e 73 123
e 73 140
e 73 142
e 73 146
e 73 147
e 73 148
e 73 150
e 74 75
e 74 82
e 74 85
e 74 87
e 74 90
e 74 95
e 74 96
e 74 108
e 74 109
e 74 110
e 74 112
e 74 116
e 74 117
e 74 121
e 74 124
e 74 129
e 74 130
e 74 137
e 74 139
e 74 140
e 74 141
e 74 142
e 74 143
e 74 145
e 74 146
e 74 147
e 75 84
e 75 86
e 75 89
e 75 93
e 75 96
e 75 100
e 75 106
e 75 110
e 75 111
e 75 122
e 75 125
e 75 131
e 75 135
e 75 140
e 75 142
e 75 143
e 75 144
e 75 150
e 76 80
e 76 82
e 76 85
e 76 95
e 76 97
e 76 100
e 76 109
e 76 110
e 76 113
e 76 117
e 76 119
e 76 126
e 76 127
e 76 132
e 76 135
e 76 137
e 76 138
e 76 140
e 76 142
e 76 146
e 76 148
e 77 85
e 77 87
e 77 90
e 77 95
e 77 98
e 77 100
e 77 105
e 77 107
e 77 108
e 77 109
e 77 116
e 77 117
e 77 120
e 77 127
e 77 128
e 77 132
e 77 135
e 77 138
e 77 142
e 77 144
e 77 147
e 77 148
e 77 149
e 77 150
e 78 79
e 78 81
e 78 82
e 78 83
e 78 92
e 78 97
e 78 98
e 78 103
e 78 107
e 78 108
e 78 109
e 78 110
e 78 111
e 78 112
e 78 113
e 78 121
e 78 122
e 78 124
e 78 130
e 78 131
e 78 132
e 78 136
e 78 139
e 78 142
e 78 147
e 79 80
e 79 87
e 79 89
e 79 90
e 79 93
e 79 95
e 79 97
e 79 100
e 79 102
e 79 115
e 79 118
e 79 119
e 79 120
e 79 132
e 79 134
e 79 136
e 79 140
e 79 148
e 79 150
e 80 82
e 80 85
e 80 88
e 80 93
e 80 95
e 80 96
e 80 101
e 80 107
e 80 111
e 80 112
e 80 113
e 80 119
e 80 121
e 80 125
e 80 126
e 80 128
e 80 130
e 80 133
e 80 137
e 80 139
e 80 141
e 80 143
e 80 144
e 80 145
e 80 146
e 80 150
e 81 85
e 81 87
e 81 92
e 81 93
e 81 98
e 81 101
e 81 102
e 81 104
e 81 108
e 81 110
e 81 113
e 81 118
e 81 120
e 81 130
e 81 146
e 81 147
e 81 149
e 82 86
e 82 87
e 82 90
e 82 91
e 82 92
e 82 97
e 82 98
e 82 99
e 82 102
e 82 103
e 82 106
e 82 109
e 82 115
e 82 116
e 82 127
e 82 129
e 82 136
e 82 137
e 82 144
e 83 86
e 83 94
e 83 95
e 83 97
e 83 104
e 83 105
e 83 106
e 83 107
e 83 108
e 83 111
e 83 117
e 83 118
e 83 123
e 83 124
e 83 126
e 83 127
e 83 131
e 83 132
e 83 135
e 83 138
e 83 140
e 83 147
e 84 87
e 84 89
e 84 92
e 84 94
e 84 97
e 84 100
e 84 102
e 84 104
e 84 107
e 84 113
e 84 116
e 84 119
e 84 122
e 84 123
e 84 128
e 84 136
e 84 149
e 85 93
e 85 99
e 85 101
e 85 106
e 85 110
e 85 112
e 85 113
e 85 116
e 85 117
e 85 119
e 85 122
e 85 123
e 85 127
e 85 133
e 85 140
e 85 146
e 85 150
e 86 88
e 86 89
e 86 91
e 86 99
e 86 101
e 86 104
e 86 108
e 86 114
e 86 116
e 86 118
e 86 119
e 86 120
e 86 121
e 86 128
e 86 130
e 86 133
e 86 134
e 86 136
e 86 140
e 86 141
e 86 143
e 87 90
e 87 101
e 87 105
e 87 110
e 87 114
e 87 116
e 87 121
e 87 124
e 87 126
e 87 138
e 87 139
e 87 142
e 87 143
e 87 144
e 87 146
e 87 147
e 87 150
e 88 90
e 88 94
e 88 95
e 88 96
e 88 97
e 88 105
e 88 108
e 88 121
e 88 126
e 88 132
e 88 133
e 88 134
e 88 137
e 88 139
e 88 140
e 88 141
e 88 143
e 88 146
e 88 149
e 89 90
e 89 91
e 89 94
e 89 105
e 89 107
e 89 112
e 89 116
e 89 119
e 89 121
e 89 122
e 89 125
e 89 130
e 89 136
e 90 97
e 90 99
e 90 104
e 90 105
e 90 108
e 90 112
e 90 114
e 90 115
e 90 116
e 90 139
e 90 144
e 90 147
e 91 92
e 91 96
e 91 100
e 91 103
e 91 104
e 91 109
e 91 112
e 91 113
e 91 116
e 91 122
e 91 123
e 91 124
e 91 126
e 91 131
e 91 132
e 91 135
e 91 136
e 91 139
e 91 141
e 91 142
e 91 144
e 91 147
e 92 96
e 92 97
e 92 99
e 92 101
e 92 107
e 92 108
e 92 110
e 92 115
e 92 116
e 92 121
e 92 126
e 92 129
e 92 130
e 92 132
e 92 133
e 92 136
e 92 137
e 92 143
e 92 147
e 92 148
e 92 149
e 92 150
e 93 100
e 93 102
e 93 107
e 93 108
e 93 112
e 93 113
e 93 115
e 93 118
e 93 138
e 93 141
e 93 142
e 93 144
e 93 150
e 94 96
e 94 100
e 94 103
e 94 104
e 94 114
e 94 115
e 94 117
e 94 119
e 94 121
e 94 122
e 94 124
e 94 128
e 94 129
e 94 131
e 94 133
e 94 136
e 94 139
e 94 141
e 94 145
e 94 148
e 94 149
e 95 99
e 95 100
e 95 108
e 95 109
e 95 111
e 95 115
e 95 116
e 95 121
e 95 122
e 95 124
e 95 127
e 95 130
e 95 132
e 95 139
e 95 141
e 95 143
e 95 144
e 95 146
e 95 149
e 95 150
e 96 97
e 96 107
e 96 110
e 96 112
e 96 114
e 96 117
e 96 118
e 96 119
e 96 121
e 96 123
e 96 126
e 96 132
e 96 134
e 96 138
e 96 140
e 96 142
e 96 143
e 96 144
e 96 145
e 96 148
e 96 149
e 97 98
e 97 100
e 97 102
e 97 103
e 97 105
e 97 106
e 97 108
e 97 113
e 97 116
e 97 122
e 97 124
e 97 130
e 97 131
e 97 132
e 97 134
e 97 135
e 97 137
e 97 141
e 97 148
e 97 149
e 98 99
e 98 100
e 98 104
e 98 108
e 98 109
e 98 112
e 98 113
e 98 122
e 98 123
e 98 131
e 98 137
e 98 138
e 98 140
e 98 146
e 98 148
e 99 101
e 99 107
e 99 108
e 99 111
e 99 117
e 99 120
e 99 124
e 99 125
e 99 126
e 99 135
e 99 137
e 99 139
e 99 140
e 99 143
e 99 145
e 100 102
e 100 109
e 100 110
e 100 111
e 100 113
e 100 115
e 100 117
e 100 118
e 100 119
e 100 120
e 100 123
e 100 124
e 100 129
e 100 130
e 100 135
e 100 141
e 100 142
e 100 145
e 100 149
e 101 102
e 101 104
e 101 105
e 101 111
e 101 118
e 101 119
e 101 123
e 101 126
e 101 128
e 101 136
e 101 143
e 101 144
e 102 104
e 102 114
e 102 116
e 102 119
e 102 122
e 102 125
e 102 127
e 102 130
e 102 131
e 102 134
e 102 135
e 102 138
e 102 139
e 102 146
e 103 106
e 103 108
e 103 109
e 103 111
e 103 114
e 103 116
e 103 117
e 103 120
e 103 121
e 103 124
e 103 128
e 103 131
e 103 133
e 103 134
e 103 141
e 103 143
e 103 144
e 103 145
e 103 147
e 103 149
e 104 126
e 104 128
e 104 133
e 104 136
e 104 137
e 104 138
e 104 143
e 104 145
e 104 146
e 104 148
e 104 149
e 104 150
e 105 106
e 105 107
e 105 117
e 105 122
e 105 124
e 105 126
e 105 128
e 105 141
e 105 142
e 105 143
e 105 144
e 105 145
e 106 108
e 106 114
e 106 115
e 106 120
e 106 122
e 106 127
e 106 130
e 106 131
e 106 132
e 106 133
e 106 134
e 106 136
e 106 137
e 106 139
e 106 141
e 106 146
e 106 148
e 106 149
e 107 108
e 107 111
e 107 117
e 107 129
e 107 130
e 107 131
e 107 133
e 107 140
e 107 143
e 108 110
e 108 111
e 108 114
e 108 116
e 108 119
e 108 121
e 108 125
e 108 127
e 108 128
e 108 131
e 108 132
e 108 141
e 108 146
e 109 111
e 109 118
e 109 120
e 109 123
e 109 125
e 109 126
e 109 131
e 109 132
e 109 135
e 109 136
e 109 139
e 109 149
e 109 150
e 110 113
e 110 114
e 110 115
e 110 116
e 110 117
e 110 125
e 110 128
e 110 131
e 110 132
e 110 134
e 110 140
e 111 112
e 111 116
e 111 118
e 111 119
e 111 120
e 111 122
e 111 126
e 111 131
e 111 134
e 111 143
e 111 145
e 111 149
e 112 114
e 112 116
e 112 117
e 112 120
e 112 124
e 112 128
e 112 131
e 112 132
e 112 135
e 112 138
e 112 140
e 112 142
e 112 145
e 112 147
e 112 150
e 113 119
e 113 120
e 113 121
e 113 122
e 113 123
e 113 125
e 113 127
e 113 129
e 113 132
e 113 134
e 113 135
e 113 144
e 113 148
e 113 149
e 114 116
e 114 123
e 114 128
e 114 131
e 114 132
e 114 134
e 114 135
e 114 136
e 114 138
e 114 139
e 114 144
e 115 117
e 115 121
e 115 126
e 115 130
e 115 132
e 115 133
e 115 134
e 115 135
e 115 145
e 115 146
e 115 149
e 115 150
e 116 119
e 116 121
e 116 133
e 116 141
e 116 143
e 116 145
e 116 150
e 117 118
e 117 120
e 117 122
e 117 124
e 117 139
e 117 143
e 117 144
e 117 149
e 118 119
e 118 120
e 118 122
e 118 127
e 118 129
e 118 130
e 118 135
e 118 136
e 118 138
e 118 141
e 118 149
e 118 150
e 119 123
e 119 127
e 119 134
e 119 135
e 119 139
e 119 140
e 119 146
e 119 147
e 119 149
e 119 150
e 120 124
e 120 131
e 120 133
e 120 134
e 120 136
e 120 137
e 120 141
e 120 144
e 120 146
e 120 148
e 120 150
e 121 125
e 121 127
e 121 132
e 121 143
e 121 150
e 122 125
e 122 129
e 122 130
e 122 131
e 122 138
e 122 140
e 122 141
e 122 142
e 122 145
e 122 146
e 123 125
e 123 129
e 123 132
e 123 134
e 123 135
e 123 138
e 123 144
e 123 147
e 123 148
e 123 149
e 123 150
e 124 126
e 124 139
e 124 140
e 124 141
e 124 142
e 124 146
e 125 127
e 125 134
e 125 137
e 126 127
e 126 129
e 126 130
e 126 134
e 126 140
e 126 141
e 126 143
e 126 146
e 126 147
e 126 149
e 127 132
e 127 133
e 127 140
e 127 147
e 128 129
e 128 130
e 128 131
e 128 132
e 128 134
e 128 135
e 128 143
e 128 144
e 128 145
e 129 131
e 129 132
e 129 135
e 129 139
e 129 140
e 129 143
e 129 149
e 129 150
e 130 132
e 130 137
e 130 139
e 130 141
e 130 142
e 130 147
e 131 133
e 131 142
e 131 149
e 131 150
e 132 135
e 132 136
e 132 138
e 132 143
e 132 144
e 132 145
e 132 146
e 132 148
e 132 149
e 133 135
e 133 139
e 133 147
e 134 137
e 134 138
e 134 140
e 135 136
e 135 137
e 135 139
e 135 141
e 135 145
e 135 150
e 136 138
e 136 140
e 136 141
e 136 146
e 136 149
e 137 138
e 137 139
e 137 142
e 137 144
e 137 145
e 137 149
e 137 150
e 138 139
e 138 149
e 138 150
e 139 140
e 139 142
e 139 147
e 139 148
e 139 149
e 140 141
e 140 142
e 140 143
e 140 148
e 140 149
e 141 148
e 142 143
e 142 144
e 142 145
e 142 148
e 142 149
e 142 150
e 143 148
e 143 149
e 144 145
e 144 150
e 145 150
e 146 149
e 148 149
e 148 150
e 149 150
